Default LOCALE: LC_CTYPE=en_US.UTF-8;LC_NUMERIC=it_IT.UTF-8;LC_TIME=en_US.UTF-8;LC_COLLATE=en_US.UTF-8;LC_MONETARY=it_IT.UTF-8;LC_MESSAGES=en_US.UTF-8;LC_PAPER=it_IT.UTF-8;LC_NAME=it_IT.UTF-8;LC_ADDRESS=it_IT.UTF-8;LC_TELEPHONE=it_IT.UTF-8;LC_MEASUREMENT=it_IT.UTF-8;LC_IDENTIFICATION=it_IT.UTF-8

<<< setup, at 0s, took 1,54878e+09s


<<< generate, at 0,01s, took 0,00735497s

CPXPARAM_TimeLimit                               0.10000000000000001
Tried aggregator 1 time.
MIP Presolve eliminated 19 rows and 19 columns.
Reduced MIP has 441 rows, 781 columns, and 2304 nonzeros.
Reduced MIP has 400 binaries, 381 generals, 0 SOSs, and 0 indicators.
Presolve time = 0,00 sec. (1,39 ticks)
Found incumbent of value 105,858344 after 0,01 sec. (5,40 ticks)
Probing fixed 19 vars, tightened 0 bounds.
Probing time = 0,00 sec. (3,11 ticks)
Cover probing fixed 0 vars, tightened 361 bounds.
Tried aggregator 1 time.
MIP Presolve eliminated 21 rows and 39 columns.
MIP Presolve modified 362 coefficients.
Reduced MIP has 420 rows, 742 columns, and 2206 nonzeros.
Reduced MIP has 381 binaries, 361 generals, 0 SOSs, and 0 indicators.
Presolve time = 0,00 sec. (2,39 ticks)
Probing time = 0,00 sec. (2,68 ticks)
Clique table members: 40.
MIP emphasis: balance optimality and feasibility.
MIP search method: dynamic search.
Parallel mode: deterministic, using up to 4 threads.
Root relaxation solution time = 0,00 sec. (4,92 ticks)

        Nodes                                         Cuts/
   Node  Left     Objective  IInf  Best Integer    Best Bound    ItCnt     Gap

*     0+    0                          105,8583        0,0000           100,00%
      0     0       27,9715    48      105,8583       27,9715      323   73,58%
      0     0       29,0886    65      105,8583      Cuts: 63      485   72,52%

Cover cuts applied:  2
Implied bound cuts applied:  9
Flow cuts applied:  17
Zero-half cuts applied:  2
Lift and project cuts applied:  3
Gomory fractional cuts applied:  2

Root node processing (before b&c):
  Real time             =    0,10 sec. (63,56 ticks)
Parallel b&c, 4 threads:
  Real time             =    0,00 sec. (0,00 ticks)
  Sync time (average)   =    0,00 sec.
  Wait time (average)   =    0,00 sec.
                          ------------
Total (root+branch&cut) =    0,10 sec. (63,56 ticks)

<<< solve, at 0,3s, took 0,103354s


OBJECTIVE: 105.8583
01/29/2019 17:12:11 693
solving time ~= 108.057861328
Done
 [[0 0 0 0 0 0 0 0 0 0 0 0 0 0 0 0 0 0 0 11]
         [0 0 0 0 0 0 0 0 0 0 0 0 0 0 0 0 0 0 2 0]
         [0 3 0 0 0 0 0 0 0 0 0 0 0 0 0 0 0 0 0 0]
         [0 0 0 0 0 0 0 0 0 0 0 0 0 18 0 0 0 0 0 0]
         [0 0 0 0 0 5 0 0 0 0 0 0 0 0 0 0 0 0 0 0]
         [0 0 4 0 0 0 0 0 0 0 0 0 0 0 0 0 0 0 0 0]
         [0 0 0 0 0 0 0 0 0 7 0 0 0 0 0 0 0 0 0 0]
         [0 0 0 0 0 0 0 0 16 0 0 0 0 0 0 0 0 0 0 0]
         [0 0 0 0 0 0 0 0 0 0 0 0 0 0 0 15 0 0 0 0]
         [0 0 0 0 6 0 0 0 0 0 0 0 0 0 0 0 0 0 0 0]
         [0 0 0 0 0 0 0 0 0 0 0 0 0 0 0 0 9 0 0 0]
         [0 0 0 0 0 0 0 0 0 0 0 0 0 0 20 0 0 0 0 0]
         [0 0 0 0 0 0 0 0 0 0 0 0 0 0 0 0 0 13 0 0]
         [0 0 0 0 0 0 0 17 0 0 0 0 0 0 0 0 0 0 0 0]
         [0 0 0 19 0 0 0 0 0 0 0 0 0 0 0 0 0 0 0 0]
         [0 0 0 0 0 0 0 0 0 0 0 0 14 0 0 0 0 0 0 0]
         [0 0 0 0 0 0 8 0 0 0 0 0 0 0 0 0 0 0 0 0]
         [12 0 0 0 0 0 0 0 0 0 0 0 0 0 0 0 0 0 0 0]
         [0 0 0 0 0 0 0 0 0 0 0 1 0 0 0 0 0 0 0 0]
         [0 0 0 0 0 0 0 0 0 0 10 0 0 0 0 0 0 0 0 0]]

<<< post process, at 0,3s, took 0,000953913s

// solution (time limit exceeded) with objective 105.858343787249
// Quality Incumbent solution:
// MILP objective                                 1,0585834379e+02
// MILP solution norm |x| (Total, Max)            2,30000e+02  2,00000e+01
// MILP solution error (Ax=b) (Total, Max)        0,00000e+00  0,00000e+00
// MILP x bound error (Total, Max)                0,00000e+00  0,00000e+00
// MILP x integrality error (Total, Max)          0,00000e+00  0,00000e+00
// MILP slack bound error (Total, Max)            0,00000e+00  0,00000e+00
// 

y = [[0
             0 0 0 0 0 0 0 0 0 0 0 0 0 0 0 0 0 0 1]
             [0 0 0 0 0 0 0 0 0 0 0 0 0 0 0 0 0 0 1 0]
             [0 1 0 0 0 0 0 0 0 0 0 0 0 0 0 0 0 0 0 0]
             [0 0 0 0 0 0 0 0 0 0 0 0 0 1 0 0 0 0 0 0]
             [0 0 0 0 0 1 0 0 0 0 0 0 0 0 0 0 0 0 0 0]
             [0 0 1 0 0 0 0 0 0 0 0 0 0 0 0 0 0 0 0 0]
             [0 0 0 0 0 0 0 0 0 1 0 0 0 0 0 0 0 0 0 0]
             [0 0 0 0 0 0 0 0 1 0 0 0 0 0 0 0 0 0 0 0]
             [0 0 0 0 0 0 0 0 0 0 0 0 0 0 0 1 0 0 0 0]
             [0 0 0 0 1 0 0 0 0 0 0 0 0 0 0 0 0 0 0 0]
             [0 0 0 0 0 0 0 0 0 0 0 0 0 0 0 0 1 0 0 0]
             [0 0 0 0 0 0 0 0 0 0 0 0 0 0 1 0 0 0 0 0]
             [0 0 0 0 0 0 0 0 0 0 0 0 0 0 0 0 0 1 0 0]
             [0 0 0 0 0 0 0 1 0 0 0 0 0 0 0 0 0 0 0 0]
             [0 0 0 1 0 0 0 0 0 0 0 0 0 0 0 0 0 0 0 0]
             [0 0 0 0 0 0 0 0 0 0 0 0 1 0 0 0 0 0 0 0]
             [0 0 0 0 0 0 1 0 0 0 0 0 0 0 0 0 0 0 0 0]
             [1 0 0 0 0 0 0 0 0 0 0 0 0 0 0 0 0 0 0 0]
             [0 0 0 0 0 0 0 0 0 0 0 1 0 0 0 0 0 0 0 0]
             [0 0 0 0 0 0 0 0 0 0 1 0 0 0 0 0 0 0 0 0]];
x = [[0 0 0 0 0 0 0 0 0 0 0 0 0 0 0 0 0 0 0 11]
             [0 0 0 0 0 0 0 0 0 0 0 0 0 0 0 0 0 0 2 0]
             [0 3 0 0 0 0 0 0 0 0 0 0 0 0 0 0 0 0 0 0]
             [0 0 0 0 0 0 0 0 0 0 0 0 0 18 0 0 0 0 0 0]
             [0 0 0 0 0 5 0 0 0 0 0 0 0 0 0 0 0 0 0 0]
             [0 0 4 0 0 0 0 0 0 0 0 0 0 0 0 0 0 0 0 0]
             [0 0 0 0 0 0 0 0 0 7 0 0 0 0 0 0 0 0 0 0]
             [0 0 0 0 0 0 0 0 16 0 0 0 0 0 0 0 0 0 0 0]
             [0 0 0 0 0 0 0 0 0 0 0 0 0 0 0 15 0 0 0 0]
             [0 0 0 0 6 0 0 0 0 0 0 0 0 0 0 0 0 0 0 0]
             [0 0 0 0 0 0 0 0 0 0 0 0 0 0 0 0 9 0 0 0]
             [0 0 0 0 0 0 0 0 0 0 0 0 0 0 20 0 0 0 0 0]
             [0 0 0 0 0 0 0 0 0 0 0 0 0 0 0 0 0 13 0 0]
             [0 0 0 0 0 0 0 17 0 0 0 0 0 0 0 0 0 0 0 0]
             [0 0 0 19 0 0 0 0 0 0 0 0 0 0 0 0 0 0 0 0]
             [0 0 0 0 0 0 0 0 0 0 0 0 14 0 0 0 0 0 0 0]
             [0 0 0 0 0 0 8 0 0 0 0 0 0 0 0 0 0 0 0 0]
             [12 0 0 0 0 0 0 0 0 0 0 0 0 0 0 0 0 0 0 0]
             [0 0 0 0 0 0 0 0 0 0 0 1 0 0 0 0 0 0 0 0]
             [0 0 0 0 0 0 0 0 0 0 10 0 0 0 0 0 0 0 0 0]];

<<< done, at 0,3s, took 0,00091815s

